DIMACS_lns/graph-1000-760.col
p edge 1000 1833
e 2 528
e 2 377
e 2 133
e 2 454
e 2 507
e 3 728
e 3 666
e 3 374
e 3 812
e 4 990
e 4 337
e 4 874
e 4 347
e 4 768
e 4 266
e 5 151
e 5 543
e 5 761
e 5 338
e 5 541
e 5 52
e 7 143
e 7 587
e 7 648
e 7 769
e 7 617
e 9 590
e 9 734
e 9 587
e 11 937
e 11 84
e 11 234
e 11 162
e 12 663
e 12 623
e 12 926
e 12 489
e 15 652
e 15 914
e 15 383
e 15 18
e 15 761
e 16 329
e 16 828
e 16 662
e 16 901
e 16 257
e 17 953
e 17 835
e 17 529
e 18 284
e 18 614
e 18 572
e 18 385
e 19 926
e 19 74
e 19 67
e 19 466
e 20 277
e 20 371
e 20 351
e 20 54
e 21 732
e 21 942
e 21 90
e 21 285
e 21 371
e 21 536
e 21 434
e 21 515
e 22 884
e 22 461
e 22 412
e 22 897
e 24 498
e 24 556
e 24 442
e 25 324
e 25 834
e 25 347
e 25 693
e 25 1000
e 25 582
e 25 71
e 25 415
e 26 103
e 26 328
e 26 901
e 26 595
e 27 844
e 27 854
e 27 97
e 27 412
e 27 815
e 27 34
e 27 713
e 28 689
e 28 442
e 28 189
e 29 387
e 29 552
e 29 884
e 30 803
e 30 237
e 30 951
e 30 223
e 31 849
e 31 443
e 31 613
e 31 379
e 31 429
e 31 436
e 32 529
e 32 467
e 32 89
e 33 829
e 33 919
e 33 610
e 33 431
e 34 57
e 34 725
e 34 789
e 34 416
e 34 291
e 35 251
e 35 901
e 35 689
e 38 701
e 38 252
e 38 621
e 38 948
e 38 628
e 38 328
e 38 515
e 38 205
e 39 367
e 39 741
e 39 209
e 39 481
e 39 623
e 39 826
e 40 967
e 40 702
e 40 104
e 41 384
e 41 100
e 41 735
e 41 906
e 41 675
e 41 466
e 42 230
e 42 302
e 42 327
e 42 257
e 42 240
e 42 657
e 43 216
e 43 963
e 43 957
e 43 339
e 43 742
e 43 792
e 43 803
e 44 143
e 44 440
e 44 363
e 44 490
e 44 912
e 44 473
e 45 404
e 45 89
e 45 374
e 46 191
e 46 855
e 46 879
e 46 277
e 47 951
e 47 94
e 47 621
e 48 286
e 48 223
e 48 229
e 48 183
e 50 781
e 50 260
e 50 633
e 51 765
e 51 989
e 51 139
e 51 475
e 52 801
e 52 918
e 53 112
e 53 720
e 53 425
e 53 674
e 53 943
e 53 615
e 53 906
e 54 291
e 54 287
e 54 376
e 54 816
e 54 399
e 54 58
e 54 795
e 55 74
e 55 218
e 55 355
e 55 457
e 55 152
e 56 492
e 56 129
e 56 989
e 57 829
e 57 107
e 57 275
e 57 831
e 58 698
e 58 473
e 58 195
e 58 733
e 58 125
e 64 997
e 64 806
e 64 909
e 65 235
e 65 403
e 65 471
e 65 791
e 65 619
e 65 373
e 65 97
e 66 400
e 66 552
e 66 470
e 66 157
e 67 91
e 67 978
e 67 648
e 67 161
e 67 217
e 68 563
e 68 707
e 68 649
e 69 790
e 69 781
e 69 657
e 69 674
e 69 541
e 70 883
e 70 510
e 70 303
e 70 286
e 70 585
e 70 123
e 70 336
e 70 428
e 71 224
e 71 829
e 71 277
e 73 475
e 73 628
e 73 148
e 73 528
e 74 687
e 74 290
e 74 547
e 75 229
e 75 211
e 75 268
e 79 774
e 79 966
e 79 925
e 79 252
e 79 384
e 80 791
e 80 862
e 80 162
e 80 796
e 81 688
e 81 482
e 81 736
e 81 159
e 81 178
e 81 322
e 83 317
e 83 171
e 83 241
e 84 328
e 84 941
e 84 124
e 85 250
e 85 995
e 85 663
e 85 977
e 85 363
e 85 501
e 86 478
e 86 629
e 86 290
e 86 665
e 86 882
e 89 180
e 89 908
e 89 419
e 89 909
e 89 114
e 89 138
e 90 97
e 90 597
e 90 837
e 90 816
e 91 620
e 91 441
e 91 622
e 91 745
e 91 682
e 91 991
e 92 585
e 92 185
e 92 438
e 94 459
e 94 669
e 94 345
e 94 322
e 95 313
e 95 615
e 95 232
e 95 640
e 95 990
e 95 896
e 95 361
e 95 351
e 96 925
e 96 992
e 96 507
e 96 397
e 97 129
e 97 925
e 97 480
e 99 776
e 99 787
e 99 492
e 99 936
e 99 451
e 100 355
e 100 324
e 100 949
e 102 912
e 102 368
e 102 797
e 103 644
e 103 240
e 104 162
e 104 412
e 104 791
e 104 173
e 104 241
e 105 378
e 105 325
e 105 342
e 105 195
e 106 983
e 106 498
e 106 614
e 106 160
e 106 770
e 106 897
e 107 845
e 107 963
e 107 235
e 107 665
e 108 357
e 108 251
e 108 399
e 108 801
e 108 739
e 109 833
e 109 667
e 109 686
e 109 639
e 109 217
e 110 267
e 110 557
e 110 873
e 110 656
e 112 302
e 112 373
e 112 463
e 112 181
e 112 896
e 112 282
e 112 540
e 113 306
e 113 941
e 113 172
e 113 697
e 114 270
e 114 900
e 114 196
e 114 747
e 114 771
e 114 495
e 114 641
e 114 739
e 115 800
e 115 859
e 115 162
e 115 289
e 115 501
e 115 336
e 116 240
e 116 245
e 116 904
e 116 410
e 116 926
e 117 507
e 117 634
e 117 742
e 117 177
e 117 365
e 117 204
e 119 490
e 119 882
e 119 145
e 119 319
e 120 494
e 120 440
e 120 669
e 120 983
e 120 362
e 120 365
e 121 706
e 121 496
e 121 507
e 121 203
e 122 951
e 122 208
e 122 173
e 123 978
e 123 322
e 123 156
e 123 365
e 124 259
e 124 998
e 124 774
e 125 288
e 125 271
e 127 921
e 127 629
e 127 171
e 127 820
e 127 518
e 127 463
e 127 967
e 127 451
e 127 408
e 128 848
e 128 835
e 128 864
e 128 759
e 128 387
e 128 472
e 128 989
e 129 704
e 129 148
e 129 863
e 130 593
e 130 355
e 130 698
e 133 733
e 133 412
e 133 306
e 136 753
e 136 642
e 136 243
e 136 629
e 136 953
e 137 582
e 137 855
e 137 681
e 137 921
e 138 446
e 138 695
e 138 973
e 138 987
e 138 583
e 138 276
e 138 786
e 138 400
e 139 860
e 139 462
e 139 824
e 142 876
e 142 954
e 142 270
e 142 846
e 142 292
e 143 635
e 143 867
e 143 803
e 143 212
e 144 921
e 144 682
e 144 957
e 144 534
e 144 975
e 145 575
e 145 246
e 145 901
e 145 979
e 148 163
e 150 641
e 150 593
e 150 809
e 150 979
e 151 489
e 151 364
e 151 398
e 151 203
e 152 799
e 152 590
e 152 712
e 155 267
e 155 900
e 155 495
e 155 499
e 156 996
e 156 337
e 156 443
e 157 907
e 157 442
e 157 666
e 157 440
e 157 785
e 157 420
e 158 860
e 158 499
e 158 542
e 158 596
e 159 257
e 159 655
e 159 619
e 159 351
e 159 354
e 160 970
e 160 602
e 160 245
e 160 296
e 160 802
e 160 251
e 160 306
e 161 313
e 161 365
e 161 727
e 161 273
e 161 434
e 162 983
e 162 299
e 162 402
e 162 768
e 163 257
e 163 377
e 164 478
e 164 439
e 164 369
e 164 940
e 165 880
e 165 530
e 165 193
e 165 786
e 167 489
e 167 920
e 167 723
e 167 844
e 169 947
e 169 199
e 169 744
e 169 666
e 169 438
e 170 670
e 170 267
e 170 625
e 170 241
e 170 305
e 171 807
e 171 733
e 172 227
e 172 233
e 173 483
e 173 458
e 174 861
e 174 559
e 174 986
e 174 404
e 174 602
e 175 227
e 175 982
e 175 314
e 177 199
e 177 961
e 177 190
e 178 681
e 178 891
e 179 769
e 179 912
e 179 261
e 180 615
e 180 814
e 181 470
e 181 461
e 181 485
e 182 439
e 182 814
e 182 651
e 183 909
e 183 854
e 183 679
e 183 244
e 183 855
e 185 349
e 185 584
e 186 514
e 186 661
e 186 607
e 186 468
e 189 844
e 189 232
e 190 478
e 190 265
e 190 941
e 191 458
e 191 233
e 191 544
e 191 254
e 191 547
e 193 524
e 193 778
e 193 942
e 194 811
e 194 361
e 194 844
e 194 946
e 194 873
e 194 473
e 195 258
e 195 695
e 196 212
e 196 727
e 196 407
e 197 295
e 197 395
e 197 995
e 197 757
e 197 318
e 198 390
e 198 1000
e 198 498
e 199 736
e 202 287
e 202 365
e 202 843
e 202 296
e 202 347
e 203 318
e 203 912
e 204 452
e 204 876
e 204 835
e 204 801
e 204 339
e 205 381
e 205 738
e 205 275
e 206 284
e 206 895
e 206 477
e 206 583
e 206 359
e 208 787
e 208 795
e 208 542
e 209 912
e 209 493
e 209 340
e 209 470
e 210 879
e 210 686
e 210 334
e 210 594
e 210 984
e 210 245
e 211 785
e 211 269
e 212 254
e 212 282
e 212 628
e 214 409
e 214 827
e 214 886
e 214 289
e 214 473
e 214 470
e 216 757
e 216 389
e 216 484
e 216 422
e 217 845
e 217 409
e 217 824
e 217 790
e 217 610
e 217 316
e 217 713
e 218 912
e 218 425
e 218 261
e 218 407
e 218 303
e 220 681
e 220 324
e 220 420
e 220 639
e 221 417
e 221 597
e 221 590
e 221 874
e 221 771
e 221 282
e 221 386
e 222 884
e 222 660
e 222 975
e 223 648
e 223 263
e 223 794
e 223 875
e 224 805
e 224 993
e 224 992
e 224 784
e 224 886
e 226 686
e 226 454
e 226 912
e 226 232
e 226 436
e 226 305
e 227 414
e 227 632
e 227 572
e 227 284
e 227 402
e 228 614
e 228 670
e 228 626
e 229 918
e 229 334
e 229 792
e 229 877
e 229 832
e 230 902
e 230 669
e 230 305
e 230 742
e 230 865
e 232 565
e 232 955
e 232 709
e 233 429
e 233 391
e 233 793
e 234 901
e 234 619
e 234 676
e 234 783
e 234 312
e 235 564
e 235 539
e 236 454
e 236 914
e 236 240
e 237 911
e 237 896
e 237 597
e 238 688
e 238 833
e 238 983
e 238 679
e 238 440
e 238 245
e 240 759
e 240 351
e 241 619
e 241 688
e 241 661
e 241 379
e 241 655
e 242 291
e 242 895
e 242 619
e 242 863
e 243 997
e 243 641
e 244 806
e 244 252
e 244 274
e 244 998
e 244 956
e 245 459
e 245 973
e 245 824
e 245 297
e 245 707
e 245 576
e 246 476
e 246 987
e 246 542
e 246 365
e 247 830
e 247 565
e 247 477
e 247 620
e 247 605
e 247 436
e 250 370
e 250 944
e 250 957
e 250 897
e 250 471
e 250 700
e 251 989
e 251 795
e 252 738
e 252 973
e 252 723
e 254 856
e 255 438
e 255 913
e 255 618
e 257 814
e 257 377
e 258 485
e 258 537
e 259 292
e 259 385
e 260 807
e 260 934
e 260 266
e 260 882
e 261 372
e 262 850
e 262 297
e 262 936
e 263 946
e 263 602
e 263 756
e 265 319
e 265 650
e 265 875
e 265 621
e 265 357
e 266 635
e 266 854
e 266 894
e 266 873
e 266 665
e 267 860
e 267 287
e 267 414
e 267 431
e 267 490
e 268 709
e 268 377
e 269 380
e 269 430
e 269 832
e 269 399
e 269 461
e 270 339
e 271 483
e 271 689
e 271 583
e 271 470
e 273 483
e 273 673
e 274 849
e 274 897
e 275 996
e 275 952
e 275 920
e 276 355
e 276 770
e 276 322
e 276 837
e 276 537
e 277 698
e 277 410
e 278 384
e 278 373
e 278 376
e 281 500
e 281 376
e 281 399
e 282 324
e 283 564
e 283 624
e 283 540
e 283 807
e 283 451
e 284 514
e 284 790
e 284 541
e 285 609
e 285 891
e 286 308
e 286 296
e 286 368
e 287 946
e 287 596
e 287 500
e 287 903
e 288 687
e 288 734
e 288 342
e 288 920
e 288 696
e 289 484
e 289 296
e 289 766
e 289 361
e 289 728
e 290 494
e 290 445
e 290 837
e 291 955
e 291 899
e 291 897
e 291 518
e 291 457
e 291 528
e 292 986
e 292 430
e 292 877
e 295 335
e 295 705
e 295 460
e 296 967
e 296 802
e 296 324
e 297 651
e 297 889
e 298 305
e 298 809
e 298 496
e 298 940
e 299 356
e 299 544
e 299 842
e 299 313
e 299 576
e 299 946
e 300 378
e 300 798
e 300 885
e 300 709
e 302 846
e 302 920
e 303 619
e 303 811
e 303 380
e 304 446
e 304 769
e 304 508
e 306 311
e 306 809
e 306 848
e 306 994
e 306 799
e 307 805
e 307 515
e 307 982
e 308 770
e 308 966
e 309 827
e 309 595
e 309 332
e 309 910
e 310 490
e 310 557
e 310 400
e 311 561
e 311 361
e 311 797
e 312 407
e 312 937
e 313 994
e 313 775
e 313 412
e 313 728
e 313 460
e 314 432
e 314 648
e 314 328
e 314 624
e 315 926
e 315 493
e 315 996
e 316 846
e 316 461
e 316 977
e 317 363
e 317 375
e 317 492
e 317 399
e 318 844
e 318 783
e 318 474
e 318 381
e 319 497
e 319 596
e 319 680
e 320 613
e 320 444
e 320 322
e 322 382
e 323 910
e 323 895
e 323 758
e 323 857
e 324 362
e 324 597
e 324 649
e 324 873
e 325 709
e 325 556
e 326 338
e 326 597
e 326 883
e 327 675
e 327 932
e 328 887
e 329 416
e 329 345
e 329 464
e 329 391
e 332 719
e 332 541
e 334 707
e 335 719
e 335 565
e 336 920
e 336 868
e 337 391
e 338 748
e 338 399
e 339 414
e 339 552
e 339 458
e 340 825
e 340 594
e 340 991
e 340 922
e 340 993
e 340 766
e 340 754
e 342 657
e 342 933
e 343 461
e 343 620
e 343 466
e 343 916
e 345 678
e 345 416
e 347 633
e 347 743
e 349 704
e 349 893
e 350 417
e 350 408
e 350 662
e 351 848
e 351 802
e 351 409
e 354 777
e 354 801
e 354 885
e 354 775
e 354 824
e 354 805
e 354 727
e 355 827
e 355 796
e 356 924
e 356 785
e 357 732
e 357 667
e 359 973
e 359 934
e 359 520
e 359 650
e 359 993
e 359 821
e 359 940
e 361 947
e 362 792
e 362 952
e 362 496
e 362 856
e 363 532
e 363 986
e 363 420
e 364 432
e 364 772
e 364 526
e 365 781
e 365 819
e 365 597
e 366 628
e 366 404
e 366 669
e 366 652
e 367 981
e 367 832
e 367 978
e 367 471
e 368 481
e 368 880
e 368 748
e 369 858
e 369 755
e 370 772
e 370 567
e 370 848
e 370 669
e 371 829
e 371 467
e 372 807
e 372 533
e 372 436
e 373 705
e 373 772
e 374 669
e 374 984
e 374 676
e 374 865
e 375 860
e 375 632
e 375 489
e 376 755
e 376 791
e 376 884
e 376 919
e 377 470
e 378 867
e 378 810
e 378 579
e 378 667
e 379 586
e 379 693
e 380 971
e 380 964
e 380 623
e 381 660
e 381 963
e 382 452
e 382 796
e 382 618
e 383 775
e 383 452
e 383 502
e 383 676
e 384 920
e 384 864
e 384 810
e 385 850
e 386 916
e 386 884
e 386 597
e 386 896
e 386 924
e 386 812
e 387 833
e 388 502
e 388 819
e 388 480
e 389 621
e 389 657
e 390 651
e 390 846
e 391 860
e 391 749
e 391 515
e 393 678
e 393 740
e 393 408
e 393 761
e 393 446
e 393 501
e 394 796
e 394 497
e 394 882
e 395 585
e 395 714
e 395 539
e 397 657
e 397 909
e 398 436
e 398 534
e 398 556
e 399 754
e 399 782
e 399 622
e 400 891
e 400 949
e 401 810
e 401 912
e 401 652
e 401 416
e 401 988
e 402 528
e 402 688
e 402 487
e 402 834
e 402 702
e 403 609
e 403 815
e 407 944
e 407 742
e 407 906
e 407 626
e 408 977
e 408 553
e 409 880
e 409 741
e 409 488
e 409 948
e 410 563
e 410 669
e 412 908
e 412 720
e 412 789
e 412 696
e 414 979
e 414 895
e 414 519
e 414 816
e 414 482
e 415 965
e 415 584
e 416 500
e 416 458
e 417 814
e 417 530
e 418 845
e 418 873
e 418 996
e 418 506
e 418 520
e 419 484
e 419 777
e 419 745
e 420 867
e 420 468
e 421 819
e 421 903
e 421 725
e 422 659
e 422 567
e 422 682
e 424 434
e 424 441
e 424 756
e 424 755
e 424 883
e 425 533
e 425 898
e 427 515
e 427 994
e 427 798
e 428 784
e 428 706
e 429 696
e 429 845
e 429 873
e 430 555
e 430 1000
e 431 484
e 431 438
e 431 698
e 431 777
e 432 782
e 436 568
e 436 700
e 436 858
e 438 561
e 438 926
e 438 995
e 439 458
e 439 905
e 439 561
e 439 608
e 439 485
e 440 727
e 441 602
e 441 895
e 442 614
e 443 550
e 444 594
e 444 926
e 445 758
e 445 927
e 446 914
e 446 666
e 446 777
e 447 789
e 447 723
e 447 948
e 447 755
e 451 587
e 451 795
e 452 732
e 452 748
e 452 615
e 452 642
e 454 640
e 454 911
e 457 899
e 457 587
e 457 874
e 458 629
e 459 813
e 459 490
e 459 858
e 459 548
e 460 558
e 460 987
e 460 542
e 460 634
e 461 973
e 462 937
e 462 800
e 463 830
e 464 740
e 464 742
e 464 944
e 465 597
e 465 877
e 465 683
e 467 593
e 468 489
e 468 782
e 470 504
e 470 973
e 471 816
e 471 844
e 472 580
e 472 735
e 472 476
e 473 614
e 473 498
e 474 954
e 474 932
e 474 478
e 474 629
e 475 492
e 475 884
e 476 964
e 476 756
e 477 625
e 477 908
e 477 800
e 478 621
e 478 864
e 478 997
e 480 727
e 480 861
e 481 738
e 481 964
e 481 914
e 481 506
e 482 799
e 482 510
e 482 874
e 483 990
e 483 798
e 484 563
e 484 806
e 484 656
e 485 634
e 485 790
e 487 542
e 487 759
e 488 536
e 488 989
e 489 908
e 492 842
e 492 943
e 492 642
e 492 857
e 493 765
e 493 712
e 493 555
e 494 894
e 494 512
e 494 614
e 494 864
e 494 528
e 494 553
e 495 678
e 496 794
e 496 659
e 497 674
e 498 916
e 498 579
e 499 784
e 500 906
e 501 771
e 501 821
e 501 621
e 501 898
e 502 918
e 504 688
e 504 961
e 506 978
e 507 776
e 508 927
e 508 824
e 509 913
e 509 828
e 509 654
e 510 868
e 512 701
e 512 625
e 513 519
e 513 665
e 513 688
e 513 544
e 513 964
e 514 907
e 514 865
e 515 579
e 515 997
e 515 610
e 518 832
e 518 992
e 519 868
e 519 961
e 520 797
e 520 828
e 522 676
e 522 668
e 522 934
e 522 933
e 522 657
e 524 659
e 524 547
e 526 977
e 526 880
e 528 768
e 528 887
e 529 967
e 530 821
e 530 803
e 532 714
e 532 689
e 532 759
e 533 644
e 534 756
e 535 883
e 535 659
e 535 919
e 535 649
e 536 827
e 536 789
e 537 689
e 537 675
e 538 885
e 538 794
e 538 777
e 539 884
e 539 626
e 539 701
e 540 823
e 540 848
e 541 674
e 541 833
e 541 622
e 542 602
e 542 954
e 542 844
e 542 830
e 542 827
e 543 605
e 543 909
e 544 936
e 544 986
e 544 777
e 547 810
e 548 873
e 548 916
e 548 661
e 550 628
e 550 922
e 550 706
e 550 744
e 552 984
e 552 971
e 552 944
e 552 956
e 553 697
e 555 558
e 556 904
e 556 753
e 556 916
e 557 659
e 557 725
e 558 705
e 558 624
e 559 585
e 559 858
e 561 977
e 563 613
e 563 741
e 563 663
e 564 769
e 564 784
e 565 787
e 567 698
e 568 913
e 568 954
e 568 819
e 572 777
e 575 970
e 575 705
e 575 941
e 575 778
e 576 586
e 580 952
e 580 963
e 582 686
e 582 749
e 582 988
e 583 797
e 584 882
e 584 979
e 585 642
e 585 756
e 586 798
e 588 659
e 588 774
e 588 713
e 590 660
e 592 657
e 592 819
e 592 621
e 594 918
e 595 889
e 597 801
e 598 696
e 598 823
e 598 983
e 602 713
e 602 785
e 605 850
e 605 919
e 605 620
e 607 987
e 607 910
e 607 697
e 608 997
e 608 887
e 608 774
e 609 906
e 609 944
e 609 931
e 610 741
e 613 859
e 613 833
e 613 927
e 615 964
e 617 955
e 617 678
e 618 831
e 619 989
e 619 967
e 620 634
e 621 933
e 623 755
e 623 777
e 623 670
e 623 661
e 625 815
e 626 884
e 632 949
e 633 700
e 634 704
e 634 860
e 635 981
e 639 909
e 640 888
e 641 660
e 642 744
e 642 876
e 644 932
e 648 807
e 649 848
e 649 810
e 650 979
e 650 835
e 650 900
e 650 904
e 651 863
e 652 689
e 652 720
e 654 660
e 654 736
e 655 723
e 656 776
e 657 874
e 659 918
e 660 669
e 660 735
e 662 786
e 662 665
e 662 742
e 665 918
e 665 856
e 666 895
e 666 872
e 668 679
e 668 821
e 668 888
e 669 741
e 669 832
e 669 824
e 670 971
e 673 996
e 673 790
e 674 837
e 674 919
e 674 719
e 675 900
e 675 678
e 678 789
e 679 937
e 680 835
e 680 790
e 681 768
e 681 861
e 683 791
e 683 692
e 683 875
e 686 940
e 686 768
e 687 936
e 688 712
e 688 862
e 688 800
e 692 988
e 692 947
e 692 921
e 692 894
e 693 882
e 695 963
e 696 867
e 696 825
e 697 922
e 697 847
e 698 989
e 701 885
e 702 962
e 704 815
e 704 787
e 704 753
e 705 942
e 705 778
e 707 914
e 709 997
e 709 785
e 712 862
e 712 717
e 713 828
e 714 847
e 717 793
e 717 901
e 717 924
e 717 905
e 725 961
e 725 937
e 725 863
e 727 965
e 727 855
e 728 966
e 729 812
e 729 843
e 729 961
e 732 793
e 733 983
e 733 798
e 734 791
e 735 911
e 739 797
e 740 854
e 743 857
e 743 996
e 745 882
e 747 940
e 747 779
e 748 859
e 749 799
e 753 1000
e 754 955
e 755 953
e 755 954
e 755 860
e 756 810
e 757 988
e 757 867
e 758 982
e 759 889
e 759 793
e 759 803
e 759 931
e 761 765
e 765 775
e 766 933
e 768 860
e 768 913
e 768 975
e 769 916
e 769 784
e 770 911
e 770 904
e 770 994
e 771 896
e 772 1000
e 772 997
e 774 783
e 774 898
e 775 845
e 775 966
e 776 799
e 779 973
e 779 902
e 784 962
e 785 905
e 787 844
e 789 842
e 790 964
e 790 806
e 793 895
e 794 885
e 796 908
e 797 805
e 799 947
e 800 826
e 802 879
e 803 962
e 803 988
e 804 975
e 804 983
e 804 806
e 809 970
e 811 965
e 812 943
e 812 867
e 813 884
e 813 913
e 813 904
e 813 824
e 820 900
e 820 979
e 823 846
e 824 902
e 824 825
e 825 898
e 826 961
e 826 860
e 827 948
e 828 940
e 829 893
e 829 998
e 830 887
e 831 936
e 834 922
e 843 893
e 845 967
e 847 865
e 847 864
e 849 955
e 850 888
e 854 887
e 857 925
e 857 942
e 858 897
e 862 947
e 863 954
e 865 931
e 868 891
e 872 884
e 872 932
e 882 901
e 882 949
e 883 996
e 883 896
e 884 933
e 886 961
e 886 998
e 886 944
e 891 964
e 893 963
e 897 916
e 897 989
e 899 922
e 903 997
e 904 984
e 905 975
e 907 983
e 914 962
e 916 996
e 919 973
e 927 953
e 934 998
e 937 991
e 940 955
e 943 989
e 943 981
e 952 992
e 956 971
e 963 990
e 975 1000
