txt_Ins/graph-1000-760.txt
n 1000
e 1 527
e 1 376
e 1 132
e 1 453
e 1 506
e 2 727
e 2 665
e 2 373
e 2 811
e 3 989
e 3 336
e 3 873
e 3 346
e 3 767
e 3 265
e 4 150
e 4 542
e 4 760
e 4 337
e 4 540
e 4 51
e 6 142
e 6 586
e 6 647
e 6 768
e 6 616
e 8 589
e 8 733
e 8 586
e 10 936
e 10 83
e 10 233
e 10 161
e 11 662
e 11 622
e 11 925
e 11 488
e 14 651
e 14 913
e 14 382
e 14 17
e 14 760
e 15 328
e 15 827
e 15 661
e 15 900
e 15 256
e 16 952
e 16 834
e 16 528
e 17 283
e 17 613
e 17 571
e 17 384
e 18 925
e 18 73
e 18 66
e 18 465
e 19 276
e 19 370
e 19 350
e 19 53
e 20 731
e 20 941
e 20 89
e 20 284
e 20 370
e 20 535
e 20 433
e 20 514
e 21 883
e 21 460
e 21 411
e 21 896
e 23 497
e 23 555
e 23 441
e 24 323
e 24 833
e 24 346
e 24 692
e 24 999
e 24 581
e 24 70
e 24 414
e 25 102
e 25 327
e 25 900
e 25 594
e 26 843
e 26 853
e 26 96
e 26 411
e 26 814
e 26 33
e 26 712
e 27 688
e 27 441
e 27 188
e 28 386
e 28 551
e 28 883
e 29 802
e 29 236
e 29 950
e 29 222
e 30 848
e 30 442
e 30 612
e 30 378
e 30 428
e 30 435
e 31 528
e 31 466
e 31 88
e 32 828
e 32 918
e 32 609
e 32 430
e 33 56
e 33 724
e 33 788
e 33 415
e 33 290
e 34 250
e 34 900
e 34 688
e 37 700
e 37 251
e 37 620
e 37 947
e 37 627
e 37 327
e 37 514
e 37 204
e 38 366
e 38 740
e 38 208
e 38 480
e 38 622
e 38 825
e 39 966
e 39 701
e 39 103
e 40 383
e 40 99
e 40 734
e 40 905
e 40 674
e 40 465
e 41 229
e 41 301
e 41 326
e 41 256
e 41 239
e 41 656
e 42 215
e 42 962
e 42 956
e 42 338
e 42 741
e 42 791
e 42 802
e 43 142
e 43 439
e 43 362
e 43 489
e 43 911
e 43 472
e 44 403
e 44 88
e 44 373
e 45 190
e 45 854
e 45 878
e 45 276
e 46 950
e 46 93
e 46 620
e 47 285
e 47 222
e 47 228
e 47 182
e 49 780
e 49 259
e 49 632
e 50 764
e 50 988
e 50 138
e 50 474
e 51 800
e 51 917
e 52 111
e 52 719
e 52 424
e 52 673
e 52 942
e 52 614
e 52 905
e 53 290
e 53 286
e 53 375
e 53 815
e 53 398
e 53 57
e 53 794
e 54 73
e 54 217
e 54 354
e 54 456
e 54 151
e 55 491
e 55 128
e 55 988
e 56 828
e 56 106
e 56 274
e 56 830
e 57 697
e 57 472
e 57 194
e 57 732
e 57 124
e 63 996
e 63 805
e 63 908
e 64 234
e 64 402
e 64 470
e 64 790
e 64 618
e 64 372
e 64 96
e 65 399
e 65 551
e 65 469
e 65 156
e 66 90
e 66 977
e 66 647
e 66 160
e 66 216
e 67 562
e 67 706
e 67 648
e 68 789
e 68 780
e 68 656
e 68 673
e 68 540
e 69 882
e 69 509
e 69 302
e 69 285
e 69 584
e 69 122
e 69 335
e 69 427
e 70 223
e 70 828
e 70 276
e 72 474
e 72 627
e 72 147
e 72 527
e 73 686
e 73 289
e 73 546
e 74 228
e 74 210
e 74 267
e 78 773
e 78 965
e 78 924
e 78 251
e 78 383
e 79 790
e 79 861
e 79 161
e 79 795
e 80 687
e 80 481
e 80 735
e 80 158
e 80 177
e 80 321
e 82 316
e 82 170
e 82 240
e 83 327
e 83 940
e 83 123
e 84 249
e 84 994
e 84 662
e 84 976
e 84 362
e 84 500
e 85 477
e 85 628
e 85 289
e 85 664
e 85 881
e 88 179
e 88 907
e 88 418
e 88 908
e 88 113
e 88 137
e 89 96
e 89 596
e 89 836
e 89 815
e 90 619
e 90 440
e 90 621
e 90 744
e 90 681
e 90 990
e 91 584
e 91 184
e 91 437
e 93 458
e 93 668
e 93 344
e 93 321
e 94 312
e 94 614
e 94 231
e 94 639
e 94 989
e 94 895
e 94 360
e 94 350
e 95 924
e 95 991
e 95 506
e 95 396
e 96 128
e 96 924
e 96 479
e 98 775
e 98 786
e 98 491
e 98 935
e 98 450
e 99 354
e 99 323
e 99 948
e 101 911
e 101 367
e 101 796
e 102 643
e 102 239
e 103 161
e 103 411
e 103 790
e 103 172
e 103 240
e 104 377
e 104 324
e 104 341
e 104 194
e 105 982
e 105 497
e 105 613
e 105 159
e 105 769
e 105 896
e 106 844
e 106 962
e 106 234
e 106 664
e 107 356
e 107 250
e 107 398
e 107 800
e 107 738
e 108 832
e 108 666
e 108 685
e 108 638
e 108 216
e 109 266
e 109 556
e 109 872
e 109 655
e 111 301
e 111 372
e 111 462
e 111 180
e 111 895
e 111 281
e 111 539
e 112 305
e 112 940
e 112 171
e 112 696
e 113 269
e 113 899
e 113 195
e 113 746
e 113 770
e 113 494
e 113 640
e 113 738
e 114 799
e 114 858
e 114 161
e 114 288
e 114 500
e 114 335
e 115 239
e 115 244
e 115 903
e 115 409
e 115 925
e 116 506
e 116 633
e 116 741
e 116 176
e 116 364
e 116 203
e 118 489
e 118 881
e 118 144
e 118 318
e 119 493
e 119 439
e 119 668
e 119 982
e 119 361
e 119 364
e 120 705
e 120 495
e 120 506
e 120 202
e 121 950
e 121 207
e 121 172
e 122 977
e 122 321
e 122 155
e 122 364
e 123 258
e 123 997
e 123 773
e 124 287
e 124 270
e 126 920
e 126 628
e 126 170
e 126 819
e 126 517
e 126 462
e 126 966
e 126 450
e 126 407
e 127 847
e 127 834
e 127 863
e 127 758
e 127 386
e 127 471
e 127 988
e 128 703
e 128 147
e 128 862
e 129 592
e 129 354
e 129 697
e 132 732
e 132 411
e 132 305
e 135 752
e 135 641
e 135 242
e 135 628
e 135 952
e 136 581
e 136 854
e 136 680
e 136 920
e 137 445
e 137 694
e 137 972
e 137 986
e 137 582
e 137 275
e 137 785
e 137 399
e 138 859
e 138 461
e 138 823
e 141 875
e 141 953
e 141 269
e 141 845
e 141 291
e 142 634
e 142 866
e 142 802
e 142 211
e 143 920
e 143 681
e 143 956
e 143 533
e 143 974
e 144 574
e 144 245
e 144 900
e 144 978
e 147 162
e 149 640
e 149 592
e 149 808
e 149 978
e 150 488
e 150 363
e 150 397
e 150 202
e 151 798
e 151 589
e 151 711
e 154 266
e 154 899
e 154 494
e 154 498
e 155 995
e 155 336
e 155 442
e 156 906
e 156 441
e 156 665
e 156 439
e 156 784
e 156 419
e 157 859
e 157 498
e 157 541
e 157 595
e 158 256
e 158 654
e 158 618
e 158 350
e 158 353
e 159 969
e 159 601
e 159 244
e 159 295
e 159 801
e 159 250
e 159 305
e 160 312
e 160 364
e 160 726
e 160 272
e 160 433
e 161 982
e 161 298
e 161 401
e 161 767
e 162 256
e 162 376
e 163 477
e 163 438
e 163 368
e 163 939
e 164 879
e 164 529
e 164 192
e 164 785
e 166 488
e 166 919
e 166 722
e 166 843
e 168 946
e 168 198
e 168 743
e 168 665
e 168 437
e 169 669
e 169 266
e 169 624
e 169 240
e 169 304
e 170 806
e 170 732
e 171 226
e 171 232
e 172 482
e 172 457
e 173 860
e 173 558
e 173 985
e 173 403
e 173 601
e 174 226
e 174 981
e 174 313
e 176 198
e 176 960
e 176 189
e 177 680
e 177 890
e 178 768
e 178 911
e 178 260
e 179 614
e 179 813
e 180 469
e 180 460
e 180 484
e 181 438
e 181 813
e 181 650
e 182 908
e 182 853
e 182 678
e 182 243
e 182 854
e 184 348
e 184 583
e 185 513
e 185 660
e 185 606
e 185 467
e 188 843
e 188 231
e 189 477
e 189 264
e 189 940
e 190 457
e 190 232
e 190 543
e 190 253
e 190 546
e 192 523
e 192 777
e 192 941
e 193 810
e 193 360
e 193 843
e 193 945
e 193 872
e 193 472
e 194 257
e 194 694
e 195 211
e 195 726
e 195 406
e 196 294
e 196 394
e 196 994
e 196 756
e 196 317
e 197 389
e 197 999
e 197 497
e 198 735
e 201 286
e 201 364
e 201 842
e 201 295
e 201 346
e 202 317
e 202 911
e 203 451
e 203 875
e 203 834
e 203 800
e 203 338
e 204 380
e 204 737
e 204 274
e 205 283
e 205 894
e 205 476
e 205 582
e 205 358
e 207 786
e 207 794
e 207 541
e 208 911
e 208 492
e 208 339
e 208 469
e 209 878
e 209 685
e 209 333
e 209 593
e 209 983
e 209 244
e 210 784
e 210 268
e 211 253
e 211 281
e 211 627
e 213 408
e 213 826
e 213 885
e 213 288
e 213 472
e 213 469
e 215 756
e 215 388
e 215 483
e 215 421
e 216 844
e 216 408
e 216 823
e 216 789
e 216 609
e 216 315
e 216 712
e 217 911
e 217 424
e 217 260
e 217 406
e 217 302
e 219 680
e 219 323
e 219 419
e 219 638
e 220 416
e 220 596
e 220 589
e 220 873
e 220 770
e 220 281
e 220 385
e 221 883
e 221 659
e 221 974
e 222 647
e 222 262
e 222 793
e 222 874
e 223 804
e 223 992
e 223 991
e 223 783
e 223 885
e 225 685
e 225 453
e 225 911
e 225 231
e 225 435
e 225 304
e 226 413
e 226 631
e 226 571
e 226 283
e 226 401
e 227 613
e 227 669
e 227 625
e 228 917
e 228 333
e 228 791
e 228 876
e 228 831
e 229 901
e 229 668
e 229 304
e 229 741
e 229 864
e 231 564
e 231 954
e 231 708
e 232 428
e 232 390
e 232 792
e 233 900
e 233 618
e 233 675
e 233 782
e 233 311
e 234 563
e 234 538
e 235 453
e 235 913
e 235 239
e 236 910
e 236 895
e 236 596
e 237 687
e 237 832
e 237 982
e 237 678
e 237 439
e 237 244
e 239 758
e 239 350
e 240 618
e 240 687
e 240 660
e 240 378
e 240 654
e 241 290
e 241 894
e 241 618
e 241 862
e 242 996
e 242 640
e 243 805
e 243 251
e 243 273
e 243 997
e 243 955
e 244 458
e 244 972
e 244 823
e 244 296
e 244 706
e 244 575
e 245 475
e 245 986
e 245 541
e 245 364
e 246 829
e 246 564
e 246 476
e 246 619
e 246 604
e 246 435
e 249 369
e 249 943
e 249 956
e 249 896
e 249 470
e 249 699
e 250 988
e 250 794
e 251 737
e 251 972
e 251 722
e 253 855
e 254 437
e 254 912
e 254 617
e 256 813
e 256 376
e 257 484
e 257 536
e 258 291
e 258 384
e 259 806
e 259 933
e 259 265
e 259 881
e 260 371
e 261 849
e 261 296
e 261 935
e 262 945
e 262 601
e 262 755
e 264 318
e 264 649
e 264 874
e 264 620
e 264 356
e 265 634
e 265 853
e 265 893
e 265 872
e 265 664
e 266 859
e 266 286
e 266 413
e 266 430
e 266 489
e 267 708
e 267 376
e 268 379
e 268 429
e 268 831
e 268 398
e 268 460
e 269 338
e 270 482
e 270 688
e 270 582
e 270 469
e 272 482
e 272 672
e 273 848
e 273 896
e 274 995
e 274 951
e 274 919
e 275 354
e 275 769
e 275 321
e 275 836
e 275 536
e 276 697
e 276 409
e 277 383
e 277 372
e 277 375
e 280 499
e 280 375
e 280 398
e 281 323
e 282 563
e 282 623
e 282 539
e 282 806
e 282 450
e 283 513
e 283 789
e 283 540
e 284 608
e 284 890
e 285 307
e 285 295
e 285 367
e 286 945
e 286 595
e 286 499
e 286 902
e 287 686
e 287 733
e 287 341
e 287 919
e 287 695
e 288 483
e 288 295
e 288 765
e 288 360
e 288 727
e 289 493
e 289 444
e 289 836
e 290 954
e 290 898
e 290 896
e 290 517
e 290 456
e 290 527
e 291 985
e 291 429
e 291 876
e 294 334
e 294 704
e 294 459
e 295 966
e 295 801
e 295 323
e 296 650
e 296 888
e 297 304
e 297 808
e 297 495
e 297 939
e 298 355
e 298 543
e 298 841
e 298 312
e 298 575
e 298 945
e 299 377
e 299 797
e 299 884
e 299 708
e 301 845
e 301 919
e 302 618
e 302 810
e 302 379
e 303 445
e 303 768
e 303 507
e 305 310
e 305 808
e 305 847
e 305 993
e 305 798
e 306 804
e 306 514
e 306 981
e 307 769
e 307 965
e 308 826
e 308 594
e 308 331
e 308 909
e 309 489
e 309 556
e 309 399
e 310 560
e 310 360
e 310 796
e 311 406
e 311 936
e 312 993
e 312 774
e 312 411
e 312 727
e 312 459
e 313 431
e 313 647
e 313 327
e 313 623
e 314 925
e 314 492
e 314 995
e 315 845
e 315 460
e 315 976
e 316 362
e 316 374
e 316 491
e 316 398
e 317 843
e 317 782
e 317 473
e 317 380
e 318 496
e 318 595
e 318 679
e 319 612
e 319 443
e 319 321
e 321 381
e 322 909
e 322 894
e 322 757
e 322 856
e 323 361
e 323 596
e 323 648
e 323 872
e 324 708
e 324 555
e 325 337
e 325 596
e 325 882
e 326 674
e 326 931
e 327 886
e 328 415
e 328 344
e 328 463
e 328 390
e 331 718
e 331 540
e 333 706
e 334 718
e 334 564
e 335 919
e 335 867
e 336 390
e 337 747
e 337 398
e 338 413
e 338 551
e 338 457
e 339 824
e 339 593
e 339 990
e 339 921
e 339 992
e 339 765
e 339 753
e 341 656
e 341 932
e 342 460
e 342 619
e 342 465
e 342 915
e 344 677
e 344 415
e 346 632
e 346 742
e 348 703
e 348 892
e 349 416
e 349 407
e 349 661
e 350 847
e 350 801
e 350 408
e 353 776
e 353 800
e 353 884
e 353 774
e 353 823
e 353 804
e 353 726
e 354 826
e 354 795
e 355 923
e 355 784
e 356 731
e 356 666
e 358 972
e 358 933
e 358 519
e 358 649
e 358 992
e 358 820
e 358 939
e 360 946
e 361 791
e 361 951
e 361 495
e 361 855
e 362 531
e 362 985
e 362 419
e 363 431
e 363 771
e 363 525
e 364 780
e 364 818
e 364 596
e 365 627
e 365 403
e 365 668
e 365 651
e 366 980
e 366 831
e 366 977
e 366 470
e 367 480
e 367 879
e 367 747
e 368 857
e 368 754
e 369 771
e 369 566
e 369 847
e 369 668
e 370 828
e 370 466
e 371 806
e 371 532
e 371 435
e 372 704
e 372 771
e 373 668
e 373 983
e 373 675
e 373 864
e 374 859
e 374 631
e 374 488
e 375 754
e 375 790
e 375 883
e 375 918
e 376 469
e 377 866
e 377 809
e 377 578
e 377 666
e 378 585
e 378 692
e 379 970
e 379 963
e 379 622
e 380 659
e 380 962
e 381 451
e 381 795
e 381 617
e 382 774
e 382 451
e 382 501
e 382 675
e 383 919
e 383 863
e 383 809
e 384 849
e 385 915
e 385 883
e 385 596
e 385 895
e 385 923
e 385 811
e 386 832
e 387 501
e 387 818
e 387 479
e 388 620
e 388 656
e 389 650
e 389 845
e 390 859
e 390 748
e 390 514
e 392 677
e 392 739
e 392 407
e 392 760
e 392 445
e 392 500
e 393 795
e 393 496
e 393 881
e 394 584
e 394 713
e 394 538
e 396 656
e 396 908
e 397 435
e 397 533
e 397 555
e 398 753
e 398 781
e 398 621
e 399 890
e 399 948
e 400 809
e 400 911
e 400 651
e 400 415
e 400 987
e 401 527
e 401 687
e 401 486
e 401 833
e 401 701
e 402 608
e 402 814
e 406 943
e 406 741
e 406 905
e 406 625
e 407 976
e 407 552
e 408 879
e 408 740
e 408 487
e 408 947
e 409 562
e 409 668
e 411 907
e 411 719
e 411 788
e 411 695
e 413 978
e 413 894
e 413 518
e 413 815
e 413 481
e 414 964
e 414 583
e 415 499
e 415 457
e 416 813
e 416 529
e 417 844
e 417 872
e 417 995
e 417 505
e 417 519
e 418 483
e 418 776
e 418 744
e 419 866
e 419 467
e 420 818
e 420 902
e 420 724
e 421 658
e 421 566
e 421 681
e 423 433
e 423 440
e 423 755
e 423 754
e 423 882
e 424 532
e 424 897
e 426 514
e 426 993
e 426 797
e 427 783
e 427 705
e 428 695
e 428 844
e 428 872
e 429 554
e 429 999
e 430 483
e 430 437
e 430 697
e 430 776
e 431 781
e 435 567
e 435 699
e 435 857
e 437 560
e 437 925
e 437 994
e 438 457
e 438 904
e 438 560
e 438 607
e 438 484
e 439 726
e 440 601
e 440 894
e 441 613
e 442 549
e 443 593
e 443 925
e 444 757
e 444 926
e 445 913
e 445 665
e 445 776
e 446 788
e 446 722
e 446 947
e 446 754
e 450 586
e 450 794
e 451 731
e 451 747
e 451 614
e 451 641
e 453 639
e 453 910
e 456 898
e 456 586
e 456 873
e 457 628
e 458 812
e 458 489
e 458 857
e 458 547
e 459 557
e 459 986
e 459 541
e 459 633
e 460 972
e 461 936
e 461 799
e 462 829
e 463 739
e 463 741
e 463 943
e 464 596
e 464 876
e 464 682
e 466 592
e 467 488
e 467 781
e 469 503
e 469 972
e 470 815
e 470 843
e 471 579
e 471 734
e 471 475
e 472 613
e 472 497
e 473 953
e 473 931
e 473 477
e 473 628
e 474 491
e 474 883
e 475 963
e 475 755
e 476 624
e 476 907
e 476 799
e 477 620
e 477 863
e 477 996
e 479 726
e 479 860
e 480 737
e 480 963
e 480 913
e 480 505
e 481 798
e 481 509
e 481 873
e 482 989
e 482 797
e 483 562
e 483 805
e 483 655
e 484 633
e 484 789
e 486 541
e 486 758
e 487 535
e 487 988
e 488 907
e 491 841
e 491 942
e 491 641
e 491 856
e 492 764
e 492 711
e 492 554
e 493 893
e 493 511
e 493 613
e 493 863
e 493 527
e 493 552
e 494 677
e 495 793
e 495 658
e 496 673
e 497 915
e 497 578
e 498 783
e 499 905
e 500 770
e 500 820
e 500 620
e 500 897
e 501 917
e 503 687
e 503 960
e 505 977
e 506 775
e 507 926
e 507 823
e 508 912
e 508 827
e 508 653
e 509 867
e 511 700
e 511 624
e 512 518
e 512 664
e 512 687
e 512 543
e 512 963
e 513 906
e 513 864
e 514 578
e 514 996
e 514 609
e 517 831
e 517 991
e 518 867
e 518 960
e 519 796
e 519 827
e 521 675
e 521 667
e 521 933
e 521 932
e 521 656
e 523 658
e 523 546
e 525 976
e 525 879
e 527 767
e 527 886
e 528 966
e 529 820
e 529 802
e 531 713
e 531 688
e 531 758
e 532 643
e 533 755
e 534 882
e 534 658
e 534 918
e 534 648
e 535 826
e 535 788
e 536 688
e 536 674
e 537 884
e 537 793
e 537 776
e 538 883
e 538 625
e 538 700
e 539 822
e 539 847
e 540 673
e 540 832
e 540 621
e 541 601
e 541 953
e 541 843
e 541 829
e 541 826
e 542 604
e 542 908
e 543 935
e 543 985
e 543 776
e 546 809
e 547 872
e 547 915
e 547 660
e 549 627
e 549 921
e 549 705
e 549 743
e 551 983
e 551 970
e 551 943
e 551 955
e 552 696
e 554 557
e 555 903
e 555 752
e 555 915
e 556 658
e 556 724
e 557 704
e 557 623
e 558 584
e 558 857
e 560 976
e 562 612
e 562 740
e 562 662
e 563 768
e 563 783
e 564 786
e 566 697
e 567 912
e 567 953
e 567 818
e 571 776
e 574 969
e 574 704
e 574 940
e 574 777
e 575 585
e 579 951
e 579 962
e 581 685
e 581 748
e 581 987
e 582 796
e 583 881
e 583 978
e 584 641
e 584 755
e 585 797
e 587 658
e 587 773
e 587 712
e 589 659
e 591 656
e 591 818
e 591 620
e 593 917
e 594 888
e 596 800
e 597 695
e 597 822
e 597 982
e 601 712
e 601 784
e 604 849
e 604 918
e 604 619
e 606 986
e 606 909
e 606 696
e 607 996
e 607 886
e 607 773
e 608 905
e 608 943
e 608 930
e 609 740
e 612 858
e 612 832
e 612 926
e 614 963
e 616 954
e 616 677
e 617 830
e 618 988
e 618 966
e 619 633
e 620 932
e 622 754
e 622 776
e 622 669
e 622 660
e 624 814
e 625 883
e 631 948
e 632 699
e 633 703
e 633 859
e 634 980
e 638 908
e 639 887
e 640 659
e 641 743
e 641 875
e 643 931
e 647 806
e 648 847
e 648 809
e 649 978
e 649 834
e 649 899
e 649 903
e 650 862
e 651 688
e 651 719
e 653 659
e 653 735
e 654 722
e 655 775
e 656 873
e 658 917
e 659 668
e 659 734
e 661 785
e 661 664
e 661 741
e 664 917
e 664 855
e 665 894
e 665 871
e 667 678
e 667 820
e 667 887
e 668 740
e 668 831
e 668 823
e 669 970
e 672 995
e 672 789
e 673 836
e 673 918
e 673 718
e 674 899
e 674 677
e 677 788
e 678 936
e 679 834
e 679 789
e 680 767
e 680 860
e 682 790
e 682 691
e 682 874
e 685 939
e 685 767
e 686 935
e 687 711
e 687 861
e 687 799
e 691 987
e 691 946
e 691 920
e 691 893
e 692 881
e 694 962
e 695 866
e 695 824
e 696 921
e 696 846
e 697 988
e 700 884
e 701 961
e 703 814
e 703 786
e 703 752
e 704 941
e 704 777
e 706 913
e 708 996
e 708 784
e 711 861
e 711 716
e 712 827
e 713 846
e 716 792
e 716 900
e 716 923
e 716 904
e 724 960
e 724 936
e 724 862
e 726 964
e 726 854
e 727 965
e 728 811
e 728 842
e 728 960
e 731 792
e 732 982
e 732 797
e 733 790
e 734 910
e 738 796
e 739 853
e 742 856
e 742 995
e 744 881
e 746 939
e 746 778
e 747 858
e 748 798
e 752 999
e 753 954
e 754 952
e 754 953
e 754 859
e 755 809
e 756 987
e 756 866
e 757 981
e 758 888
e 758 792
e 758 802
e 758 930
e 760 764
e 764 774
e 765 932
e 767 859
e 767 912
e 767 974
e 768 915
e 768 783
e 769 910
e 769 903
e 769 993
e 770 895
e 771 999
e 771 996
e 773 782
e 773 897
e 774 844
e 774 965
e 775 798
e 778 972
e 778 901
e 783 961
e 784 904
e 786 843
e 788 841
e 789 963
e 789 805
e 792 894
e 793 884
e 795 907
e 796 804
e 798 946
e 799 825
e 801 878
e 802 961
e 802 987
e 803 974
e 803 982
e 803 805
e 808 969
e 810 964
e 811 942
e 811 866
e 812 883
e 812 912
e 812 903
e 812 823
e 819 899
e 819 978
e 822 845
e 823 901
e 823 824
e 824 897
e 825 960
e 825 859
e 826 947
e 827 939
e 828 892
e 828 997
e 829 886
e 830 935
e 833 921
e 842 892
e 844 966
e 846 864
e 846 863
e 848 954
e 849 887
e 853 886
e 856 924
e 856 941
e 857 896
e 861 946
e 862 953
e 864 930
e 867 890
e 871 883
e 871 931
e 881 900
e 881 948
e 882 995
e 882 895
e 883 932
e 885 960
e 885 997
e 885 943
e 890 963
e 892 962
e 896 915
e 896 988
e 898 921
e 902 996
e 903 983
e 904 974
e 906 982
e 913 961
e 915 995
e 918 972
e 926 952
e 933 997
e 936 990
e 939 954
e 942 988
e 942 980
e 951 991
e 955 970
e 962 989
e 974 999
